language ESSENCE' 1.0

letting jobs = 102
letting horizon = 806
letting resourcesRenew = 2
letting resourcesNonrenew = 2
letting resourceLimits = [26, 26, 595, 613]
letting successors = [[2, 3, 4, 6, 7, 8, 10, 13], [16, 12, 9, 5], [35, 31, 25, 24, 22, 18, 15, 11], [35, 31, 26, 25, 22, 19, 17, 15], [35, 31, 29, 26, 25, 23, 22, 19], [35, 34, 31, 27, 25, 14], [35, 33, 32, 31, 29, 28, 27, 26, 24, 23], [31, 26, 25, 21, 20, 17], [31, 26, 24, 20, 19], [26, 25, 22, 18, 15], [41, 37, 34, 32, 26, 20], [41, 37, 30, 29, 26, 17], [41, 39, 37, 35, 34, 33, 32, 30, 29, 28, 27], [41, 37, 32, 26, 20], [41, 38, 37, 33, 32, 30, 29, 28, 27], [46, 39, 38, 35, 31, 30, 29, 28], [39, 38, 36, 34, 33, 32, 28], [43, 41, 38, 37, 34, 33, 32, 30], [48, 38, 37, 36, 34, 30, 27], [39, 38, 33, 30, 29, 28], [49, 46, 42, 41, 39, 37, 36, 33, 30], [38, 37, 33, 32, 28], [46, 44, 43, 41, 39, 37, 30], [43, 42, 41, 38, 34], [33, 32, 30], [49, 48, 46, 40, 38], [46, 45, 44, 43, 42], [44, 43, 42, 40], [49, 42, 40, 36], [56, 50, 47, 40], [56, 48, 47, 40], [56, 46, 40], [59, 56, 54, 48, 44], [54, 50, 45, 44], [54, 49, 48, 44], [59, 56, 53, 50, 44], [56, 40], [59, 53, 50, 44], [61, 59, 56, 54, 52, 50, 48], [57, 54, 52, 45], [61, 57, 56, 55, 54, 52, 51, 48], [61, 60, 59, 54, 52, 50], [59, 58, 53, 51, 49], [58, 55, 51, 47], [69, 67, 61, 59, 58, 55, 53, 51], [58, 47], [69, 62, 61, 60, 57, 52], [69, 67, 66, 64, 62, 60, 53], [68, 65, 62, 57, 56], [77, 69, 68, 65, 58, 57], [80, 66, 65, 64, 63, 60], [77, 67, 66, 64, 63], [80, 78, 71, 68, 65, 63], [74, 70, 69, 67, 62], [83, 80, 78, 76, 73, 71, 63], [80, 77, 76, 74, 73, 69, 66], [67, 64, 63], [80, 79, 76, 75, 74, 73, 72, 66], [82, 80, 78, 77, 76, 73, 70], [92, 79, 78, 76, 75, 73, 68], [71, 64], [101, 92, 86, 85, 84, 82, 81, 80, 79, 77, 76], [93, 84, 74, 72, 70], [92, 83, 76, 73, 72], [92, 83, 76, 73, 72], [93, 86, 84, 83, 78, 71], [80, 76, 73, 72], [84, 83, 81, 72], [93, 92, 91, 90, 82, 79, 75], [92, 91, 90, 85, 79, 75], [101, 92, 91, 90, 89, 88, 85, 82, 81], [101, 91, 90, 88, 86, 85, 82], [91, 89, 85, 84, 81], [101, 98, 90, 88, 81], [101, 100, 99, 97, 96, 88, 87, 86], [100, 99, 97, 96, 93, 91, 89], [99, 96, 87, 83], [101, 99, 97, 91, 88, 85], [97, 96, 89, 88, 87], [97, 96, 89, 88, 87], [100, 99, 96, 87], [100, 96, 94, 87], [98, 90, 88], [98, 94, 90], [98, 96], [89], [95], [94], [95], [97], [94], [94], [98], [102], [102], [102], [102], [102], [102], [102], [102], []]
letting durations = [[0], [6, 8, 10], [3, 7, 8], [5, 6, 7], [5, 7, 10], [6, 7, 9], [2, 4, 5], [4, 5, 6], [5, 7, 8], [1, 2, 4], [1, 8, 9], [5, 7, 10], [2, 3, 5], [2, 4, 5], [3, 4, 7], [2, 3, 10], [2, 4, 5], [1, 5, 10], [1, 2, 3], [3, 4, 5], [4, 5, 6], [2, 5, 8], [3, 6, 10], [2, 7, 10], [2, 5, 6], [1, 3, 9], [1, 5, 7], [2, 3, 7], [2, 4, 5], [1, 7, 9], [4, 7, 10], [1, 3, 4], [7, 9, 10], [1, 4, 7], [1, 4, 7], [3, 6, 9], [1, 6, 7], [4, 6, 7], [5, 6, 10], [5, 7, 10], [1, 6, 9], [1, 6, 10], [3, 9, 10], [2, 6, 9], [1, 2, 9], [1, 4, 8], [2, 4, 8], [4, 5, 7], [7, 8, 10], [6, 7, 8], [2, 5, 10], [7, 8, 10], [3, 5, 9], [1, 3, 7], [1, 3, 9], [1, 2, 7], [1, 2, 7], [4, 8, 10], [5, 8, 9], [1, 5, 6], [2, 5, 8], [1, 4, 5], [1, 9, 10], [2, 4, 8], [4, 5, 8], [1, 3, 8], [4, 7, 8], [1, 8, 10], [6, 8, 10], [3, 9, 10], [5, 6, 8], [2, 3, 10], [6, 7, 10], [1, 9, 10], [2, 3, 9], [3, 9, 10], [1, 3, 6], [3, 6, 10], [2, 3, 5], [1, 4, 6], [1, 4, 10], [7, 8, 9], [4, 5, 9], [2, 7, 10], [5, 8, 9], [2, 3, 4], [3, 7, 10], [1, 3, 4], [8, 9, 10], [4, 5, 6], [1, 4, 8], [3, 6, 9], [3, 6, 8], [1, 4, 5], [2, 3, 6], [5, 9, 10], [3, 5, 10], [3, 4, 10], [4, 5, 6], [2, 3, 8], [7, 9, 10], [0]]
letting resourceUsage = [[[0, 0, 0, 0]], [[3, 3, 5, 6], [2, 2, 4, 6], [2, 2, 3, 6]], [[5, 3, 9, 5], [5, 2, 9, 5], [5, 2, 9, 4]], [[4, 3, 8, 9], [4, 3, 7, 7], [3, 2, 7, 7]], [[5, 4, 8, 3], [3, 2, 7, 3], [3, 2, 7, 2]], [[2, 3, 5, 8], [2, 2, 4, 7], [2, 1, 2, 1]], [[3, 5, 7, 10], [3, 4, 4, 8], [2, 4, 1, 5]], [[4, 5, 6, 4], [4, 5, 4, 3], [4, 5, 4, 2]], [[5, 3, 9, 9], [4, 2, 6, 8], [4, 2, 4, 8]], [[3, 3, 7, 8], [1, 3, 5, 8], [1, 3, 5, 7]], [[2, 4, 7, 9], [1, 4, 5, 7], [1, 4, 4, 7]], [[4, 4, 7, 5], [3, 3, 7, 3], [2, 1, 7, 3]], [[2, 3, 6, 8], [2, 2, 5, 7], [1, 2, 4, 6]], [[2, 4, 3, 6], [1, 2, 1, 4], [1, 2, 1, 3]], [[2, 3, 7, 8], [2, 2, 5, 7], [2, 1, 5, 7]], [[1, 4, 8, 9], [1, 3, 8, 8], [1, 3, 7, 8]], [[4, 5, 9, 7], [4, 3, 6, 5], [2, 3, 5, 2]], [[4, 4, 2, 5], [3, 3, 2, 5], [2, 2, 2, 3]], [[2, 4, 7, 8], [2, 4, 5, 7], [2, 2, 5, 7]], [[2, 4, 9, 7], [1, 3, 8, 6], [1, 3, 7, 4]], [[3, 4, 3, 8], [3, 4, 3, 6], [2, 4, 3, 6]], [[4, 5, 8, 3], [4, 4, 3, 2], [3, 4, 1, 1]], [[3, 3, 5, 8], [2, 2, 2, 7], [2, 2, 1, 7]], [[3, 3, 5, 5], [3, 3, 3, 5], [3, 3, 3, 4]], [[4, 2, 2, 7], [4, 2, 2, 4], [4, 2, 1, 3]], [[4, 3, 5, 4], [4, 1, 4, 4], [4, 1, 4, 3]], [[3, 4, 9, 5], [3, 4, 7, 3], [3, 4, 7, 2]], [[3, 5, 7, 7], [3, 4, 6, 4], [3, 2, 3, 4]], [[1, 3, 9, 5], [1, 3, 5, 5], [1, 3, 3, 5]], [[1, 3, 10, 6], [1, 3, 6, 5], [1, 1, 5, 4]], [[5, 2, 6, 9], [5, 2, 5, 9], [5, 2, 5, 8]], [[4, 4, 4, 2], [4, 2, 3, 1], [4, 1, 2, 1]], [[4, 4, 9, 7], [3, 3, 7, 7], [2, 3, 7, 4]], [[4, 4, 8, 6], [3, 3, 4, 4], [3, 3, 4, 3]], [[2, 2, 8, 8], [2, 1, 7, 8], [2, 1, 6, 8]], [[5, 4, 9, 10], [3, 4, 4, 9], [3, 4, 4, 8]], [[4, 2, 9, 7], [3, 2, 6, 5], [3, 2, 2, 3]], [[2, 3, 5, 4], [2, 3, 3, 4], [2, 3, 3, 1]], [[2, 2, 5, 7], [2, 2, 4, 3], [2, 1, 3, 1]], [[3, 5, 4, 9], [3, 2, 3, 9], [3, 2, 3, 8]], [[3, 3, 8, 3], [2, 2, 7, 2], [1, 2, 4, 1]], [[5, 2, 4, 5], [5, 2, 2, 5], [5, 2, 2, 3]], [[5, 3, 6, 7], [4, 1, 6, 7], [3, 1, 5, 7]], [[5, 4, 10, 5], [3, 4, 5, 4], [3, 4, 4, 3]], [[2, 2, 7, 4], [1, 2, 7, 3], [1, 2, 4, 1]], [[3, 5, 7, 6], [3, 5, 7, 2], [3, 5, 7, 1]], [[3, 5, 1, 5], [3, 2, 1, 4], [2, 1, 1, 4]], [[5, 2, 4, 4], [4, 2, 2, 3], [3, 2, 1, 2]], [[1, 1, 6, 7], [1, 1, 4, 4], [1, 1, 3, 2]], [[2, 4, 4, 10], [1, 4, 3, 7], [1, 4, 2, 5]], [[5, 3, 5, 8], [5, 3, 4, 6], [5, 2, 4, 6]], [[4, 3, 4, 6], [3, 3, 4, 4], [2, 3, 2, 1]], [[5, 3, 7, 8], [3, 3, 6, 8], [3, 3, 5, 8]], [[1, 2, 8, 7], [1, 2, 8, 6], [1, 2, 8, 3]], [[4, 4, 10, 7], [2, 3, 7, 5], [1, 3, 5, 3]], [[5, 4, 5, 6], [4, 3, 5, 2], [4, 3, 3, 1]], [[3, 4, 9, 10], [2, 4, 8, 8], [2, 3, 7, 6]], [[4, 3, 4, 4], [4, 3, 4, 3], [4, 3, 3, 4]], [[3, 4, 6, 9], [2, 4, 5, 7], [1, 4, 3, 5]], [[2, 2, 8, 8], [2, 2, 8, 7], [2, 2, 8, 6]], [[3, 4, 10, 5], [3, 4, 9, 3], [1, 4, 8, 3]], [[3, 4, 6, 9], [2, 2, 5, 7], [2, 2, 5, 6]], [[4, 5, 8, 9], [3, 2, 8, 8], [3, 1, 8, 6]], [[4, 2, 7, 3], [2, 1, 7, 2], [2, 1, 6, 2]], [[5, 1, 2, 10], [4, 1, 1, 9], [4, 1, 1, 7]], [[2, 3, 4, 8], [1, 2, 3, 7], [1, 2, 3, 4]], [[4, 3, 9, 8], [3, 2, 5, 7], [1, 2, 4, 7]], [[1, 2, 9, 9], [1, 2, 5, 8], [1, 2, 2, 6]], [[2, 3, 10, 7], [2, 2, 9, 4], [2, 2, 8, 1]], [[5, 3, 7, 5], [5, 3, 5, 4], [5, 3, 3, 3]], [[5, 4, 3, 6], [5, 3, 2, 4], [5, 2, 1, 4]], [[4, 5, 8, 8], [3, 4, 6, 3], [3, 2, 6, 1]], [[5, 4, 10, 9], [4, 4, 9, 8], [4, 4, 7, 8]], [[3, 4, 9, 8], [3, 2, 8, 8], [2, 2, 6, 7]], [[2, 3, 7, 5], [1, 2, 6, 4], [1, 1, 6, 2]], [[3, 3, 3, 4], [2, 3, 3, 3], [1, 3, 2, 2]], [[4, 3, 8, 5], [3, 3, 6, 4], [2, 2, 5, 4]], [[5, 4, 9, 9], [3, 3, 8, 7], [3, 2, 7, 7]], [[4, 2, 3, 6], [4, 2, 2, 5], [3, 2, 2, 3]], [[1, 2, 10, 3], [1, 1, 9, 3], [1, 1, 8, 3]], [[5, 4, 5, 6], [5, 3, 5, 5], [5, 2, 4, 4]], [[4, 3, 7, 5], [3, 2, 6, 3], [2, 2, 6, 2]], [[3, 3, 4, 9], [3, 3, 4, 4], [3, 2, 2, 3]], [[2, 3, 4, 4], [1, 3, 4, 4], [1, 3, 4, 3]], [[4, 3, 6, 4], [4, 2, 5, 4], [4, 2, 4, 1]], [[4, 3, 9, 9], [4, 2, 8, 7], [4, 2, 7, 6]], [[4, 3, 3, 4], [3, 2, 2, 2], [3, 1, 2, 1]], [[4, 1, 5, 7], [4, 1, 5, 4], [3, 1, 2, 3]], [[5, 1, 8, 6], [4, 1, 8, 6], [4, 1, 8, 5]], [[4, 2, 8, 4], [4, 1, 8, 5], [4, 1, 8, 4]], [[3, 4, 6, 10], [3, 4, 5, 9], [3, 4, 5, 8]], [[1, 2, 8, 7], [1, 2, 6, 6], [1, 2, 5, 2]], [[3, 1, 6, 9], [2, 1, 4, 7], [1, 1, 2, 5]], [[4, 3, 3, 10], [4, 2, 3, 10], [2, 2, 3, 10]], [[4, 3, 8, 6], [4, 2, 7, 6], [2, 2, 6, 4]], [[4, 5, 7, 7], [3, 4, 6, 7], [1, 3, 4, 7]], [[5, 4, 10, 10], [4, 4, 9, 8], [4, 4, 8, 8]], [[5, 3, 4, 7], [5, 2, 4, 7], [5, 2, 4, 6]], [[4, 4, 4, 6], [3, 3, 3, 3], [3, 3, 3, 1]], [[5, 2, 9, 10], [4, 2, 8, 9], [4, 2, 7, 8]], [[3, 2, 2, 5], [2, 2, 2, 3], [2, 2, 1, 3]], [[0, 0, 0, 0]]]
